40
1 0 8
2 0 15
2 1 5
3 0 18
3 1 1
3 2 17
4 0 10
4 1 14
4 2 14
4 3 17
5 0 6
5 1 6
5 2 2
5 3 18
5 4 12
6 0 1
6 1 19
6 2 8
6 3 5
6 4 15
6 5 15
7 0 1
7 1 13
7 2 9
7 3 9
7 4 11
7 5 3
7 6 8
8 0 20
8 1 5
8 2 19
8 3 12
8 4 15
8 5 9
8 6 17
8 7 5
9 0 6
9 1 11
9 2 11
9 3 14
9 4 20
9 5 12
9 6 12
9 7 12
9 8 12
10 0 13
10 1 17
10 2 12
10 3 13
10 4 11
10 5 5
10 6 4
10 7 7
10 8 19
10 9 4
11 0 4
11 1 1
11 2 6
11 3 14
11 4 7
11 5 3
11 6 10
11 7 4
11 8 8
11 9 6
11 10 8
12 0 6
12 1 9
12 2 11
12 3 4
12 4 11
12 5 10
12 6 20
12 7 20
12 8 14
12 9 3
12 10 10
12 11 13
13 0 2
13 1 6
13 2 9
13 3 14
13 4 2
13 5 16
13 6 13
13 7 19
13 8 15
13 9 15
13 10 8
13 11 7
13 12 19
14 0 13
14 1 9
14 2 8
14 3 8
14 4 19
14 5 13
14 6 2
14 7 2
14 8 14
14 9 9
14 10 6
14 11 14
14 12 13
14 13 16
15 0 8
15 1 15
15 2 9
15 3 15
15 4 4
15 5 3
15 6 15
15 7 2
15 8 14
15 9 1
15 10 9
15 11 6
15 12 14
15 13 12
15 14 13
16 0 11
16 1 5
16 2 12
16 3 8
16 4 17
16 5 12
16 6 10
16 7 17
16 8 15
16 9 11
16 10 9
16 11 12
16 12 18
16 13 4
16 14 1
16 15 8
17 0 6
17 1 10
17 2 19
17 3 6
17 4 12
17 5 13
17 6 14
17 7 7
17 8 13
17 9 17
17 10 5
17 11 16
17 12 2
17 13 16
17 14 3
17 15 12
17 16 2
18 0 14
18 1 15
18 2 9
18 3 7
18 4 9
18 5 13
18 6 7
18 7 11
18 8 12
18 9 14
18 10 7
18 11 20
18 12 2
18 13 1
18 14 15
18 15 12
18 16 3
18 17 9
19 0 16
19 1 3
19 2 19
19 3 1
19 4 15
19 5 15
19 6 7
19 7 8
19 8 13
19 9 12
19 10 10
19 11 9
19 12 13
19 13 12
19 14 13
19 15 10
19 16 6
19 17 9
19 18 3
20 0 15
20 1 1
20 2 6
20 3 13
20 4 17
20 5 10
20 6 5
20 7 20
20 8 17
20 9 10
20 10 14
20 11 7
20 12 12
20 13 4
20 14 17
20 15 3
20 16 9
20 17 9
20 18 5
20 19 2
21 0 20
21 1 16
21 2 13
21 3 1
21 4 11
21 5 1
21 6 6
21 7 8
21 8 14
21 9 5
21 10 20
21 11 18
21 12 2
21 13 4
21 14 6
21 15 2
21 16 3
21 17 6
21 18 2
21 19 17
21 20 3
22 0 4
22 1 18
22 2 10
22 3 14
22 4 4
22 5 3
22 6 1
22 7 13
22 8 2
22 9 13
22 10 15
22 11 3
22 12 2
22 13 17
22 14 13
22 15 6
22 16 9
22 17 10
22 18 7
22 19 3
22 20 11
22 21 9
23 0 16
23 1 13
23 2 11
23 3 5
23 4 1
23 5 13
23 6 12
23 7 15
23 8 11
23 9 12
23 10 5
23 11 8
23 12 7
23 13 8
23 14 15
23 15 18
23 16 9
23 17 10
23 18 9
23 19 17
23 20 18
23 21 18
23 22 10
24 0 3
24 1 7
24 2 16
24 3 17
24 4 3
24 5 9
24 6 9
24 7 3
24 8 7
24 9 17
24 10 14
24 11 12
24 12 20
24 13 7
24 14 10
24 15 14
24 16 6
24 17 18
24 18 5
24 19 1
24 20 15
24 21 16
24 22 3
24 23 3
25 0 17
25 1 3
25 2 10
25 3 7
25 4 10
25 5 16
25 6 16
25 7 4
25 8 7
25 9 5
25 10 14
25 11 12
25 12 7
25 13 17
25 14 6
25 15 2
25 16 3
25 17 20
25 18 11
25 19 7
25 20 18
25 21 16
25 22 18
25 23 15
25 24 11
26 0 14
26 1 3
26 2 13
26 3 12
26 4 6
26 5 1
26 6 4
26 7 9
26 8 17
26 9 5
26 10 16
26 11 10
26 12 15
26 13 13
26 14 8
26 15 14
26 16 8
26 17 2
26 18 10
26 19 20
26 20 2
26 21 1
26 22 2
26 23 10
26 24 8
26 25 16
27 0 11
27 1 7
27 2 3
27 3 5
27 4 9
27 5 11
27 6 17
27 7 19
27 8 6
27 9 18
27 10 13
27 11 1
27 12 1
27 13 20
27 14 8
27 15 20
27 16 20
27 17 15
27 18 18
27 19 13
27 20 11
27 21 5
27 22 19
27 23 16
27 24 14
27 25 3
27 26 5
28 0 8
28 1 1
28 2 17
28 3 20
28 4 19
28 5 14
28 6 10
28 7 20
28 8 15
28 9 4
28 10 18
28 11 4
28 12 7
28 13 20
28 14 13
28 15 1
28 16 11
28 17 9
28 18 8
28 19 13
28 20 5
28 21 9
28 22 7
28 23 7
28 24 5
28 25 7
28 26 12
28 27 2
29 0 20
29 1 1
29 2 13
29 3 15
29 4 15
29 5 14
29 6 1
29 7 1
29 8 2
29 9 17
29 10 10
29 11 18
29 12 5
29 13 5
29 14 11
29 15 16
29 16 11
29 17 18
29 18 9
29 19 4
29 20 3
29 21 10
29 22 16
29 23 11
29 24 3
29 25 15
29 26 9
29 27 2
29 28 12
30 0 15
30 1 7
30 2 3
30 3 14
30 4 12
30 5 12
30 6 11
30 7 18
30 8 17
30 9 15
30 10 15
30 11 3
30 12 2
30 13 5
30 14 8
30 15 5
30 16 12
30 17 20
30 18 15
30 19 20
30 20 2
30 21 19
30 22 6
30 23 18
30 24 17
30 25 16
30 26 4
30 27 3
30 28 19
30 29 13
31 0 6
31 1 19
31 2 20
31 3 11
31 4 10
31 5 6
31 6 6
31 7 2
31 8 2
31 9 7
31 10 6
31 11 19
31 12 11
31 13 15
31 14 1
31 15 18
31 16 3
31 17 19
31 18 18
31 19 5
31 20 5
31 21 16
31 22 15
31 23 6
31 24 1
31 25 19
31 26 17
31 27 6
31 28 17
31 29 11
31 30 6
32 0 10
32 1 20
32 2 8
32 3 13
32 4 5
32 5 16
32 6 3
32 7 7
32 8 7
32 9 7
32 10 20
32 11 1
32 12 15
32 13 20
32 14 7
32 15 8
32 16 6
32 17 15
32 18 9
32 19 17
32 20 20
32 21 17
32 22 2
32 23 3
32 24 18
32 25 16
32 26 3
32 27 5
32 28 16
32 29 18
32 30 18
32 31 8
33 0 20
33 1 7
33 2 4
33 3 12
33 4 6
33 5 16
33 6 20
33 7 14
33 8 15
33 9 18
33 10 15
33 11 2
33 12 11
33 13 19
33 14 6
33 15 11
33 16 12
33 17 18
33 18 7
33 19 17
33 20 7
33 21 2
33 22 20
33 23 12
33 24 15
33 25 6
33 26 9
33 27 12
33 28 2
33 29 20
33 30 12
33 31 6
33 32 6
34 0 15
34 1 9
34 2 3
34 3 8
34 4 11
34 5 15
34 6 1
34 7 17
34 8 20
34 9 17
34 10 11
34 11 17
34 12 7
34 13 15
34 14 17
34 15 15
34 16 9
34 17 7
34 18 6
34 19 4
34 20 20
34 21 12
34 22 15
34 23 2
34 24 4
34 25 10
34 26 19
34 27 13
34 28 2
34 29 10
34 30 8
34 31 2
34 32 10
34 33 12
35 0 19
35 1 20
35 2 6
35 3 12
35 4 10
35 5 6
35 6 7
35 7 9
35 8 16
35 9 12
35 10 11
35 11 15
35 12 11
35 13 20
35 14 8
35 15 14
35 16 10
35 17 17
35 18 13
35 19 20
35 20 6
35 21 16
35 22 10
35 23 6
35 24 4
35 25 7
35 26 6
35 27 5
35 28 12
35 29 4
35 30 3
35 31 19
35 32 5
35 33 16
35 34 13
36 0 18
36 1 2
36 2 5
36 3 11
36 4 7
36 5 9
36 6 16
36 7 2
36 8 7
36 9 17
36 10 12
36 11 18
36 12 18
36 13 14
36 14 14
36 15 11
36 16 9
36 17 2
36 18 1
36 19 3
36 20 7
36 21 16
36 22 16
36 23 4
36 24 2
36 25 5
36 26 19
36 27 11
36 28 3
36 29 11
36 30 2
36 31 11
36 32 13
36 33 10
36 34 16
36 35 14
37 0 4
37 1 3
37 2 3
37 3 19
37 4 9
37 5 20
37 6 1
37 7 6
37 8 19
37 9 3
37 10 9
37 11 11
37 12 4
37 13 7
37 14 18
37 15 12
37 16 14
37 17 2
37 18 20
37 19 12
37 20 3
37 21 2
37 22 19
37 23 13
37 24 15
37 25 1
37 26 9
37 27 3
37 28 17
37 29 2
37 30 13
37 31 15
37 32 6
37 33 1
37 34 7
37 35 7
37 36 3
38 0 3
38 1 18
38 2 5
38 3 3
38 4 2
38 5 16
38 6 16
38 7 14
38 8 12
38 9 11
38 10 4
38 11 2
38 12 2
38 13 16
38 14 14
38 15 2
38 16 11
38 17 12
38 18 13
38 19 17
38 20 8
38 21 3
38 22 3
38 23 4
38 24 4
38 25 12
38 26 8
38 27 20
38 28 9
38 29 15
38 30 19
38 31 6
38 32 14
38 33 1
38 34 11
38 35 9
38 36 18
38 37 3
39 0 18
39 1 10
39 2 10
39 3 3
39 4 1
39 5 12
39 6 15
39 7 10
39 8 3
39 9 12
39 10 12
39 11 6
39 12 2
39 13 10
39 14 17
39 15 18
39 16 11
39 17 10
39 18 16
39 19 19
39 20 2
39 21 7
39 22 1
39 23 19
39 24 18
39 25 1
39 26 18
39 27 10
39 28 10
39 29 20
39 30 19
39 31 15
39 32 17
39 33 9
39 34 4
39 35 5
39 36 20
39 37 4
39 38 13
